1196622
60,42,96,93,13,21,48,80,17,53,100,102,54,58,104,22,64,15,23,79,67,4,92,74,56,103,30,6,61,85,43,95,32,51,84,59,2,81,46,94,107,16,29,25,44,20,63,3,83,52,34,101,98,35,5,1,82,45,90,24,109,10,66,77,9,37,26,41,38,72,57,75,86,27,69,70,14,39,31,49,11,91,89,97,47,71,99,105,87,62,19,73,76,50,18,7,88,65,12,36,28,8,40,68,55,33,78,108,106,60